%%%mzn-stat: initTime=0.058483349
%%%mzn-stat: objective=223
%%%mzn-stat: nodes=661
%%%mzn-stat: restarts=0
%%%mzn-stat: peakDepth=238
%%%mzn-stat: solveTime=0.071022219
%%%mzn-stat: variables=663
%%%mzn-stat: propagators=448
%%%mzn-stat: failures=340
%%%mzn-stat: propagations=58988
%%%mzn-stat: nogoods=340
%%%mzn-stat: AverageConflictSize=4.402941176470589
%%%mzn-stat: NumUnitNogoodsLearned=222
%%%mzn-stat: AverageLearnedNogoodLength=11.564705882352941
%%%mzn-stat: AverageBacktrackAmount=0
%%%mzn-stat: AverageLbd=4.797058823529412
%%%mzn-stat-end
maxleg = 223;
succ = array1d(1..50,[48, 29, 33, 40, 22, 27, 9, 37, 21, 11, 20, 5, 31, 16, 39, 45, 46, 44, 43, 32, 38, 28, 14, 42, 15, 12, 41, 23, 49, 17, 2, 18, 7, 10, 1, 24, 25, 30, 13, 8, 47, 50, 34, 26, 35, 19, 36, 6, 3, 4]);
% time elapsed: 6.88 s
----------
==========
% time elapsed: 6.88 s
%%%mzn-stat: initTime=0.058483349
%%%mzn-stat: objective=223
%%%mzn-stat: nodes=661
%%%mzn-stat: restarts=0
%%%mzn-stat: peakDepth=238
%%%mzn-stat: solveTime=0.071030758
%%%mzn-stat: variables=663
%%%mzn-stat: propagators=448
%%%mzn-stat: failures=340
%%%mzn-stat: propagations=58988
%%%mzn-stat: nogoods=340
%%%mzn-stat: AverageConflictSize=4.402941176470589
%%%mzn-stat: NumUnitNogoodsLearned=222
%%%mzn-stat: AverageLearnedNogoodLength=11.564705882352941
%%%mzn-stat: AverageBacktrackAmount=0
%%%mzn-stat: AverageLbd=4.797058823529412
%%%mzn-stat-end
